NAME:  test1
TYPE: AGTSP
COMMENT: gtsp tours
DIMENSION:  61
GTSP_SETS: 13
EDGE_WEIGHT_TYPE: EXPLICIT
EDGE_WEIGHT_FORMAT: FULL_MATRIX 
EDGE_WEIGHT_SECTION
999999	0	999999	999999	999999	26822	26822	26822	26814	999999	26829	26829	26829	26829	26821	26808	26808	26800	999999	999999	26855	26855	999999	999999	999999	26830	26830	26830	26830	26822	26827	26827	26827	26819	999999	26832	26832	26832
999999	999999	0	999999	999999	26822	26822	26822	26822	26814	26829	26829	26829	999999	999999	26808	26808	26808	26800	999999	26855	26855	26855	999999	999999	26830	26830	26830	999999	999999	26827	26827	26827	26827	26819	26832	26832	26832
999999	999999	999999	0	999999	26822	26822	26822	26822	999999	26829	26829	26829	26829	999999	26808	26808	26808	26808	26800	26855	26855	26855	26855	999999	26830	26830	26830	26830	999999	26827	26827	26827	26827	999999	26832	26832	26832
999999	999999	999999	999999	0	26822	26822	26822	26822	26822	26829	26829	26829	26829	26829	26808	26808	26808	26808	26808	26855	26855	26855	26855	26855	26830	26830	26830	26830	26830	26827	26827	26827	26827	26827	26832	26832	26832
0	999999	999999	999999	999999	26822	26822	26814	999999	999999	26829	26829	26829	26821	999999	26808	26800	999999	999999	999999	26855	26855	26855	26855	26847	26830	26830	26830	26822	999999	26827	26827	26819	999999	999999	26832	26832	26832
26822	26822	26822	26814	999999	999999	0	999999	999999	999999	26809	26809	26801	999999	999999	26835	26835	26835	26835	26827	26831	26831	26831	26831	26823	26836	26836	26836	26836	26828	26818	26818	26818	26810	999999	26806	26806	26798
26822	26822	26822	26822	26814	999999	999999	0	999999	999999	26809	26809	26809	26801	999999	26835	26835	26835	999999	999999	26831	26831	26831	999999	999999	26836	26836	26836	999999	999999	26818	26818	26818	26818	26810	26806	26806	26806
26822	26822	26822	26822	999999	999999	999999	999999	0	999999	26809	26809	26809	26809	26801	26835	26835	26835	26835	999999	26831	26831	26831	26831	999999	26836	26836	26836	26836	999999	26818	26818	26818	26818	999999	26806	26806	26806
26822	26822	26822	26822	26822	999999	999999	999999	999999	0	26809	26809	26809	26809	26809	26835	26835	26835	26835	26835	26831	26831	26831	26831	26831	26836	26836	26836	26836	26836	26818	26818	26818	26818	26818	26806	26806	26806
26822	26822	26814	999999	999999	0	999999	999999	999999	999999	26809	26801	999999	999999	999999	26835	26835	26835	26827	999999	26831	26831	26831	26823	999999	26836	26836	26836	26828	999999	26818	26818	26810	999999	999999	26806	26798	999999
26829	26829	26829	26829	26821	26809	26809	26801	999999	999999	999999	0	999999	999999	999999	26841	26841	26841	26841	26833	26838	26838	26838	26838	26830	26851	26851	999999	999999	999999	26808	26808	26800	999999	999999	26815	26815	26815
26829	26829	26829	999999	999999	26809	26809	26809	26801	999999	999999	999999	0	999999	999999	26841	26841	26841	999999	999999	26838	26838	26838	999999	999999	26851	26851	26851	999999	999999	26808	26808	26808	26800	999999	26815	26815	26815
26829	26829	26829	26829	999999	26809	26809	26809	26809	26801	999999	999999	999999	0	999999	26841	26841	26841	26841	999999	26838	26838	26838	26838	999999	26851	26851	26851	26851	999999	26808	26808	26808	26808	26800	26815	26815	26815
26829	26829	26829	26829	26829	26809	26809	26809	26809	26809	999999	999999	999999	999999	0	26841	26841	26841	26841	26841	26838	26838	26838	26838	26838	26851	26851	26851	26851	26851	26808	26808	26808	26808	26808	26815	26815	26815
26829	26829	26829	26821	999999	26809	26801	999999	999999	999999	0	999999	999999	999999	999999	26841	26841	26841	26833	999999	26838	26838	26838	26830	999999	26851	26851	26851	26851	26843	26808	26800	999999	999999	999999	26815	26815	26807
26808	26808	26800	999999	999999	26835	26835	26835	26835	26827	26841	26841	26841	26841	26833	999999	0	999999	999999	999999	26869	26869	999999	999999	999999	26836	26836	26836	26836	26828	26835	26835	26835	26835	26827	26846	26846	999999
26808	26808	26808	26800	999999	26835	26835	26835	999999	999999	26841	26841	26841	999999	999999	999999	999999	0	999999	999999	26869	26869	26869	999999	999999	26836	26836	26836	999999	999999	26835	26835	26835	999999	999999	26846	26846	26846
26808	26808	26808	26808	26800	26835	26835	26835	26835	999999	26841	26841	26841	26841	999999	999999	999999	999999	0	999999	26869	26869	26869	26869	999999	26836	26836	26836	26836	999999	26835	26835	26835	26835	999999	26846	26846	26846
26808	26808	26808	26808	26808	26835	26835	26835	26835	26835	26841	26841	26841	26841	26841	999999	999999	999999	999999	0	26869	26869	26869	26869	26869	26836	26836	26836	26836	26836	26835	26835	26835	26835	26835	26846	26846	26846
26808	26800	999999	999999	999999	26835	26835	26835	26827	999999	26841	26841	26841	26833	999999	0	999999	999999	999999	999999	26869	999999	999999	999999	999999	26836	26836	26836	26828	999999	26835	26835	26835	26827	999999	26846	26846	26846
26855	26855	999999	999999	999999	26831	26831	26831	26831	26823	26838	26838	26838	26838	26830	26869	26869	999999	999999	999999	999999	0	999999	999999	999999	26849	26849	999999	999999	999999	26851	26851	999999	999999	999999	26819	26819	26819
26855	26855	26855	999999	999999	26831	26831	26831	999999	999999	26838	26838	26838	999999	999999	26869	26869	26869	999999	999999	999999	999999	0	999999	999999	26849	26849	26849	999999	999999	26851	26851	26851	999999	999999	26819	26819	26819
26855	26855	26855	26855	999999	26831	26831	26831	26831	999999	26838	26838	26838	26838	999999	26869	26869	26869	26869	999999	999999	999999	999999	0	999999	26849	26849	26849	26849	999999	26851	26851	26851	26851	999999	26819	26819	26819
26855	26855	26855	26855	26855	26831	26831	26831	26831	26831	26838	26838	26838	26838	26838	26869	26869	26869	26869	26869	999999	999999	999999	999999	0	26849	26849	26849	26849	26849	26851	26851	26851	26851	26851	26819	26819	26819
26855	26855	26855	26855	26847	26831	26831	26831	26823	999999	26838	26838	26838	26830	999999	26869	999999	999999	999999	999999	0	999999	999999	999999	999999	26849	26849	26849	26849	26841	26851	26851	26851	26851	26843	26819	26819	26811
26830	26830	26830	26830	26822	26836	26836	26836	26836	26828	26851	26851	999999	999999	999999	26836	26836	26836	26836	26828	26849	26849	999999	999999	999999	999999	0	999999	999999	999999	26856	26856	999999	999999	999999	26838	26838	26838
26830	26830	26830	999999	999999	26836	26836	26836	999999	999999	26851	26851	26851	999999	999999	26836	26836	26836	999999	999999	26849	26849	26849	999999	999999	999999	999999	0	999999	999999	26856	26856	26856	999999	999999	26838	26838	26838
26830	26830	26830	26830	999999	26836	26836	26836	26836	999999	26851	26851	26851	26851	999999	26836	26836	26836	26836	999999	26849	26849	26849	26849	999999	999999	999999	999999	0	999999	26856	26856	26856	26856	999999	26838	26838	26838
26830	26830	26830	26830	26830	26836	26836	26836	26836	26836	26851	26851	26851	26851	26851	26836	26836	26836	26836	26836	26849	26849	26849	26849	26849	999999	999999	999999	999999	0	26856	26856	26856	26856	26856	26838	26838	26838
26830	26830	26830	26822	999999	26836	26836	26836	26828	999999	26851	26851	26851	26851	26843	26836	26836	26836	26828	999999	26849	26849	26849	26849	26841	0	999999	999999	999999	999999	26856	26856	26856	26856	26848	26838	26838	26838
26827	26827	26827	26819	999999	26818	26818	26818	26810	999999	26808	26808	26800	999999	999999	26835	26835	26835	26835	26827	26851	26851	999999	999999	999999	26856	26856	999999	999999	999999	999999	0	999999	999999	999999	26827	26827	26827
26827	26827	26827	26827	26819	26818	26818	26818	26818	26810	26808	26808	26808	26800	999999	26835	26835	26835	999999	999999	26851	26851	26851	999999	999999	26856	26856	26856	999999	999999	999999	999999	0	999999	999999	26827	26827	26827
26827	26827	26827	26827	999999	26818	26818	26818	26818	999999	26808	26808	26808	26808	26800	26835	26835	26835	26835	999999	26851	26851	26851	26851	999999	26856	26856	26856	26856	999999	999999	999999	999999	0	999999	26827	26827	26827
26827	26827	26827	26827	26827	26818	26818	26818	26818	26818	26808	26808	26808	26808	26808	26835	26835	26835	26835	26835	26851	26851	26851	26851	26851	26856	26856	26856	26856	26856	999999	999999	999999	999999	0	26827	26827	26827
26827	26827	26819	999999	999999	26818	26818	26810	999999	999999	26808	26800	999999	999999	999999	26835	26835	26835	26827	999999	26851	26851	26851	26851	26843	26856	26856	26856	26856	26848	0	999999	999999	999999	999999	26827	26827	26819
26832	26832	26832	26832	26824	26806	26806	26798	999999	999999	26815	26815	26815	26807	999999	26846	26846	999999	999999	999999	26819	26819	26819	26811	999999	26838	26838	26838	26838	26830	26827	26827	26827	26819	999999	999999	0	999999
26832	26832	26832	999999	999999	26806	26806	26806	26798	999999	26815	26815	26815	26815	26807	26846	26846	26846	999999	999999	26819	26819	26819	26819	26811	26838	26838	26838	999999	999999	26827	26827	26827	26827	26819	999999	999999	0
26832	26832	26832	26832	999999	26806	26806	26806	26806	26798	26815	26815	26815	26815	999999	26846	26846	26846	26846	999999	26819	26819	26819	26819	999999	26838	26838	26838	26838	999999	26827	26827	26827	26827	999999	999999	999999	999999
GTSP_SET_SECTION:
1 1 2 3 4 5 -1
2 6 7 8 9 10 -1
3 11 12 13 14 15 -1
4 16 17 18 19 20 -1
5 21 22 23 24 25 -1
6 26 27 28 29 30 -1
7 31 32 33 34 35 -1
8 36 37 38 39 40 -1
9 41 42 43 44 45 -1
10 46 47 48 49 50 -1
11 51 52 53 54 55 -1
12 56 57 58 59 60 -1
13 61 -1
EOF